============================[ Problem Statistics ]=============================|                                                                             ||  Number of variables:          4242                                         ||  Number of clauses:            9785                                         ||  Parse time:                   0.19 s                                       ||                                                                             |============================[ Search Statistics ]==============================| Conflicts |          ORIGINAL         |          LEARNT          | Progress ||           |    Vars  Clauses Literals |    Limit  Clauses Lit/Cl |          |===============================================================================|       100 |    1591     5990   277491 |     2196      100     53 | 62.501 % |===============================================================================restarts              : 2conflicts             : 111            (349 /sec)decisions             : 284            (0.00 % random) (893 /sec)propagations          : 9873           (31047 /sec)conflict literals     : 6245           (95.82 % deleted)CPU time              : 0.318 sSATISFIABLE